(set-option :smt.phase_selection 5)
(set-option :smt.arith.eager_eq_axioms false)
(set-option :smt.random_seed 8)
(set-option :proof true)
(declare-fun x () string)
(declare-fun y () string)
(assert (distinct (str.++ x "ba") (str.++ "ab" x)))
(assert (distinct (str.++ y "ab") (str.++ "ab" y )))
(check-sat)
(get-model)